unsat
(:conflicts            1
 :max-generation       1
 :max-memory           27.56
 :memory               22.47
 :mk-bool-var          1972
 :mk-clause            69
 :mk-clause-binary     678
 :num-allocs           49502920
 :num-checks           1
 :quant-instantiations 72
 :rlimit-count         967943
 :time                 0.07)
